0 3967 
1 3966 
2 3965 
3 3962 
4 3961 
5 3957 
6 3955 
7 3952 
8 3950 
9 3947 
10 3946 
11 3945 
12 3942 
13 3938 
14 3936 
15 3933 
16 3930 
17 3929 
18 3928 
19 3925 
20 3922 
21 3918 
22 3913 
23 3910 
24 3907 
25 3905 
26 3904 
27 3903 
28 3902 
29 3898 
30 3897 
31 3896 
32 3895 
33 3893 
34 3891 
35 3890 
36 3888 
37 3887 
38 3885 
39 3884 
40 3883 
41 3882 
42 3880 
43 3879 
44 3877 
45 3876 
46 3870 
47 3867 
48 3866 
49 3862 
50 3859 
51 3855 
52 3852 
53 3850 
54 3844 
55 3842 
56 3840 
57 3836 
58 3833 
59 3832 
60 3831 
61 3830 
62 3824 
63 3822 
64 3821 
65 3817 
66 3815 
67 3814 
68 3812 
69 3802 
70 3797 
71 3793 
72 3789 
73 3788 
74 3786 
75 3785 
76 3783 
77 3777 
78 3771 
79 3763 
80 3762 
81 3761 
82 3761 

